c FILE /home/rafael/Documents/HappySet/MIHS/inputs/happygen/output/graph_d_regular_k5_p0.3_v100_20241127_084046.txt
c SOURCE This is a d-regular graph formed for the happy graph colouring problem.
c DESCRIPTION It was generated using the problem generator of Rhyd Lewis
c
c GRAPH STATS
c Seed                             = -2098169690
c Number of Nodes                  = 100
c Number of colours k              = 5
c Number of pre-assignments        = 30
c Degree of all vertices           = 6
c Density                          = 0.0606061
c 
c The degrees of nodes 1 to 100, respectively, are as follows 
c [6, 6, 6, 6, 6, 6, 6, 6, 6, 6, 6, 6, 6, 6, 6, 6, 6, 6, 6, 6, 6, 6, 6, 6, 6, 6, 
c  6, 6, 6, 6, 6, 6, 6, 6, 6, 6, 6, 6, 6, 6, 6, 6, 6, 6, 6, 6, 6, 6, 6, 6, 6, 
c  6, 6, 6, 6, 6, 6, 6, 6, 6, 6, 6, 6, 6, 6, 6, 6, 6, 6, 6, 6, 6, 6, 6, 6, 6, 
c  6, 6, 6, 6, 6, 6, 6, 6, 6, 6, 6, 6, 6, 6, 6, 6, 6, 6, 6, 6, 6, 6, 6, 6] 
c  
p edge 100 300 5
e 1 7
e 1 22
e 1 25
e 1 34
e 1 42
e 1 83
e 2 14
e 2 24
e 2 28
e 2 66
e 2 75
e 2 90
e 3 10
e 3 37
e 3 51
e 3 60
e 3 62
e 3 71
e 4 36
e 4 39
e 4 59
e 4 72
e 4 75
e 4 87
e 5 13
e 5 26
e 5 27
e 5 30
e 5 48
e 5 57
e 6 33
e 6 42
e 6 52
e 6 53
e 6 82
e 6 94
e 7 19
e 7 29
e 7 57
e 7 80
e 7 90
e 8 11
e 8 23
e 8 34
e 8 39
e 8 40
e 8 66
e 9 12
e 9 36
e 9 63
e 9 81
e 9 93
e 9 98
e 10 17
e 10 40
e 10 61
e 10 68
e 10 84
e 11 17
e 11 22
e 11 43
e 11 86
e 11 93
e 12 51
e 12 64
e 12 74
e 12 78
e 12 97
e 13 17
e 13 22
e 13 45
e 13 55
e 13 58
e 14 26
e 14 38
e 14 41
e 14 66
e 14 87
e 15 30
e 15 44
e 15 76
e 15 78
e 15 95
e 15 99
e 16 33
e 16 49
e 16 56
e 16 62
e 16 96
e 16 97
e 17 38
e 17 48
e 17 70
e 18 25
e 18 32
e 18 34
e 18 47
e 18 74
e 18 92
e 19 20
e 19 27
e 19 30
e 19 50
e 19 62
e 20 26
e 20 36
e 20 57
e 20 62
e 20 98
e 21 62
e 21 67
e 21 83
e 21 86
e 21 91
e 21 93
e 22 54
e 22 84
e 22 88
e 23 38
e 23 43
e 23 55
e 23 78
e 23 100
e 24 38
e 24 49
e 24 60
e 24 79
e 24 88
e 25 46
e 25 72
e 25 94
e 25 99
e 26 56
e 26 57
e 26 95
e 27 38
e 27 52
e 27 73
e 27 75
e 28 44
e 28 46
e 28 50
e 28 56
e 28 75
e 29 45
e 29 52
e 29 54
e 29 93
e 29 99
e 30 36
e 30 53
e 30 85
e 31 35
e 31 51
e 31 55
e 31 73
e 31 76
e 31 81
e 32 37
e 32 44
e 32 48
e 32 51
e 32 95
e 33 35
e 33 55
e 33 59
e 33 74
e 34 86
e 34 89
e 34 96
e 35 44
e 35 54
e 35 74
e 35 83
e 36 45
e 36 68
e 37 73
e 37 81
e 37 83
e 37 90
e 38 48
e 39 41
e 39 80
e 39 89
e 39 91
e 40 67
e 40 88
e 40 94
e 40 95
e 41 43
e 41 56
e 41 65
e 41 77
e 42 64
e 42 71
e 42 72
e 42 95
e 43 49
e 43 53
e 43 65
e 44 46
e 44 92
e 45 64
e 45 78
e 45 84
e 46 62
e 46 63
e 46 96
e 47 50
e 47 54
e 47 64
e 47 66
e 47 68
e 48 53
e 48 70
e 49 69
e 49 96
e 49 100
e 50 59
e 50 73
e 50 77
e 51 57
e 51 98
e 52 77
e 52 91
e 52 97
e 53 76
e 53 82
e 54 75
e 54 89
e 55 63
e 55 73
e 56 71
e 56 89
e 57 79
e 58 59
e 58 69
e 58 75
e 58 84
e 58 93
e 59 63
e 59 81
e 60 61
e 60 78
e 60 80
e 60 88
e 61 65
e 61 79
e 61 86
e 61 100
e 63 72
e 63 86
e 64 72
e 64 94
e 65 68
e 65 69
e 65 74
e 66 87
e 66 94
e 67 87
e 67 89
e 67 92
e 67 97
e 68 74
e 68 91
e 69 82
e 69 83
e 69 93
e 70 72
e 70 79
e 70 92
e 70 98
e 71 76
e 71 94
e 71 98
e 73 76
e 76 96
e 77 80
e 77 81
e 77 100
e 78 89
e 79 84
e 79 85
e 80 82
e 80 100
e 81 96
e 82 88
e 82 99
e 83 92
e 84 92
e 85 90
e 85 91
e 85 95
e 85 98
e 86 99
e 87 97
e 87 100
e 88 99
e 90 91
e 90 97
n 3 5
n 4 5
n 11 5
n 13 3
n 18 1
n 19 2
n 23 1
n 24 5
n 29 4
n 35 1
n 37 5
n 51 5
n 52 4
n 53 3
n 56 5
n 61 1
n 63 1
n 64 2
n 65 1
n 67 3
n 68 1
n 74 1
n 75 5
n 76 3
n 80 1
n 84 3
n 95 5
n 96 3
n 99 4
n 100 1
